3 3 2
20 2 73 1 182 2 68 0 56 1 177 2 124 1 194 0 93 2 76 0 58 2 190 1 33 0 192 2 58 1 105 0 98 2 84 1 4 2 152 1 106 
20 0 138 2 143 1 93 0 128 2 50 1 31 0 117 1 88 2 162 1 57 0 42 1 45 0 126 2 137 0 148 2 1 1 84 0 1 2 140 0 39 
20 2 61 0 57 2 63 0 124 2 124 1 7 0 128 1 112 2 30 1 9 0 44 2 135 0 19 1 188 0 96 1 73 0 189 2 153 1 36 2 156 

-------------
